;; translated from ./cav12/array_max-2.vmt
;; original benchmark available at: https://es-static.fbk.eu/people/griggio/ic3ia/index.html
;; author: Alberto Griggio <griggio@fbk.eu>
(set-logic HORN)
(declare-fun state (Bool Bool Bool Bool Real Real Real Real Real Real Real Real Real Real Real Real Real Real Real Real Real Real Real Real Real Real Real Real Real Real Real) Bool)
(assert (forall ((|_PC.1| Bool) (|_PC.0| Bool) (|_PC.0.next| Bool) (|_PC.1.next| Bool) (|_PC.2| Bool) (|_PC.2.next| Bool) (|_PC.3.next| Bool) (|i__4$main| Real) (|i__4$main.next| Real) (|__INLINE_TEMP__16$main.next| Real) (|__INLINE_TEMP__16$main| Real) (|x__10$main.next| Real) (|x__10$main| Real) (|i__30$main.next| Real) (|i__30$main| Real) (|__INLINE_TEMP__36$main.next| Real) (|__INLINE_TEMP__36$main| Real) (|tmp__32$main.next| Real) (|tmp__32$main| Real) (|a0| Real) (|a0.next| Real) (|a1.next| Real) (|a1| Real) (|val__27$main.next| Real) (|val__27$main| Real) (|a2.next| Real) (|a2| Real) (|a3.next| Real) (|a3| Real) (|a4.next| Real) (|a4| Real) (|a5.next| Real) (|a5| Real) (|a6.next| Real) (|a6| Real) (|idx__2$main| Real) (|idx__2$main.next| Real) (|val__8$main.next| Real) (|val__8$main| Real) (|__INLINE_TEMP__19$main.next| Real) (|__INLINE_TEMP__19$main| Real) (|i__7$main.next| Real) (|i__7$main| Real) (|i__18$main.next| Real) (|i__18$main| Real) (|i__23$main.next| Real) (|i__23$main| Real) (|tmp2__14$main.next| Real) (|tmp2__14$main| Real) (|max.next| Real) (|max| Real) (|maxval__34$main.next| Real) (|maxval__34$main| Real) (|i__38$main.next| Real) (|i__38$main| Real) (|__RET__$main.next| Real) (|__RET__$main| Real) (|tmp1__12$main.next| Real) (|tmp1__12$main| Real) (|val__24$main.next| Real) (|val__24$main| Real) (|a0.SSA.1.ssa| Real) (|a6.SSA.1.ssa| Real) (|a5.SSA.1.ssa| Real) (|a4.SSA.1.ssa| Real) (|a3.SSA.1.ssa| Real) (|a2.SSA.1.ssa| Real) (|a1.SSA.1.ssa| Real) (|__NONDET_INLINE_INIT__3__3$main#0| Real) (|_PC.3| Bool)) (=> (let ((.def_18 (not _PC.3)))
(let ((.def_15 (not _PC.2)))
(let ((.def_12 (not _PC.1)))
(let ((.def_10 (not _PC.0)))
(let ((.def_13 (and .def_10 .def_12)))
(let ((.def_16 (and .def_13 .def_15)))
(let ((.def_19 (and .def_16 .def_18)))
.def_19))))))) (state |_PC.0| |_PC.1| |_PC.2| |_PC.3| |__INLINE_TEMP__16$main| |x__10$main| |i__30$main| |__INLINE_TEMP__36$main| |tmp__32$main| |a1| |val__27$main| |a2| |a3| |a4| |a5| |a6| |val__8$main| |__INLINE_TEMP__19$main| |i__7$main| |i__18$main| |i__23$main| |tmp2__14$main| |max| |maxval__34$main| |i__38$main| |__RET__$main| |tmp1__12$main| |val__24$main| |i__4$main| |a0| |idx__2$main|))))
(assert (forall ((|_PC.1| Bool) (|_PC.0| Bool) (|_PC.0.next| Bool) (|_PC.1.next| Bool) (|_PC.2| Bool) (|_PC.2.next| Bool) (|_PC.3.next| Bool) (|i__4$main| Real) (|i__4$main.next| Real) (|__INLINE_TEMP__16$main.next| Real) (|__INLINE_TEMP__16$main| Real) (|x__10$main.next| Real) (|x__10$main| Real) (|i__30$main.next| Real) (|i__30$main| Real) (|__INLINE_TEMP__36$main.next| Real) (|__INLINE_TEMP__36$main| Real) (|tmp__32$main.next| Real) (|tmp__32$main| Real) (|a0| Real) (|a0.next| Real) (|a1.next| Real) (|a1| Real) (|val__27$main.next| Real) (|val__27$main| Real) (|a2.next| Real) (|a2| Real) (|a3.next| Real) (|a3| Real) (|a4.next| Real) (|a4| Real) (|a5.next| Real) (|a5| Real) (|a6.next| Real) (|a6| Real) (|idx__2$main| Real) (|idx__2$main.next| Real) (|val__8$main.next| Real) (|val__8$main| Real) (|__INLINE_TEMP__19$main.next| Real) (|__INLINE_TEMP__19$main| Real) (|i__7$main.next| Real) (|i__7$main| Real) (|i__18$main.next| Real) (|i__18$main| Real) (|i__23$main.next| Real) (|i__23$main| Real) (|tmp2__14$main.next| Real) (|tmp2__14$main| Real) (|max.next| Real) (|max| Real) (|maxval__34$main.next| Real) (|maxval__34$main| Real) (|i__38$main.next| Real) (|i__38$main| Real) (|__RET__$main.next| Real) (|__RET__$main| Real) (|tmp1__12$main.next| Real) (|tmp1__12$main| Real) (|val__24$main.next| Real) (|val__24$main| Real) (|a0.SSA.1.ssa| Real) (|a6.SSA.1.ssa| Real) (|a5.SSA.1.ssa| Real) (|a4.SSA.1.ssa| Real) (|a3.SSA.1.ssa| Real) (|a2.SSA.1.ssa| Real) (|a1.SSA.1.ssa| Real) (|__NONDET_INLINE_INIT__3__3$main#0| Real) (|_PC.3| Bool)) (=> (and (state |_PC.0| |_PC.1| |_PC.2| |_PC.3| |__INLINE_TEMP__16$main| |x__10$main| |i__30$main| |__INLINE_TEMP__36$main| |tmp__32$main| |a1| |val__27$main| |a2| |a3| |a4| |a5| |a6| |val__8$main| |__INLINE_TEMP__19$main| |i__7$main| |i__18$main| |i__23$main| |tmp2__14$main| |max| |maxval__34$main| |i__38$main| |__RET__$main| |tmp1__12$main| |val__24$main| |i__4$main| |a0| |idx__2$main|) (let ((.def_12 (not _PC.1)))
(let ((.def_209 (and _PC.0 .def_12)))
(let ((.def_15 (not _PC.2)))
(let ((.def_210 (and .def_15 .def_209)))
(let ((.def_820 (and _PC.3 .def_210)))
(let ((.def_131 (not _PC.1.next)))
(let ((.def_133 (and .def_131 _PC.0.next)))
(let ((.def_129 (not _PC.2.next)))
(let ((.def_134 (and .def_129 .def_133)))
(let ((.def_799 (and _PC.3.next .def_134)))
(let ((.def_821 (and .def_799 .def_820)))
(let ((.def_10 (not _PC.0)))
(let ((.def_803 (and .def_10 _PC.1)))
(let ((.def_816 (and .def_15 .def_803)))
(let ((.def_18 (not _PC.3)))
(let ((.def_817 (and .def_18 .def_816)))
(let ((.def_175 (= i__4$main.next i__4$main)))
(let ((.def_32 (= __INLINE_TEMP__16$main __INLINE_TEMP__16$main.next)))
(let ((.def_773 (and .def_32 .def_175)))
(let ((.def_36 (= x__10$main x__10$main.next)))
(let ((.def_774 (and .def_36 .def_773)))
(let ((.def_40 (= i__30$main i__30$main.next)))
(let ((.def_775 (and .def_40 .def_774)))
(let ((.def_44 (= __INLINE_TEMP__36$main __INLINE_TEMP__36$main.next)))
(let ((.def_776 (and .def_44 .def_775)))
(let ((.def_48 (= tmp__32$main tmp__32$main.next)))
(let ((.def_777 (and .def_48 .def_776)))
(let ((.def_182 (= a0.next a0)))
(let ((.def_778 (and .def_182 .def_777)))
(let ((.def_52 (= a1 a1.next)))
(let ((.def_779 (and .def_52 .def_778)))
(let ((.def_56 (= val__27$main val__27$main.next)))
(let ((.def_780 (and .def_56 .def_779)))
(let ((.def_60 (= a2 a2.next)))
(let ((.def_781 (and .def_60 .def_780)))
(let ((.def_64 (= a3 a3.next)))
(let ((.def_782 (and .def_64 .def_781)))
(let ((.def_68 (= a4 a4.next)))
(let ((.def_783 (and .def_68 .def_782)))
(let ((.def_72 (= a5 a5.next)))
(let ((.def_784 (and .def_72 .def_783)))
(let ((.def_76 (= a6 a6.next)))
(let ((.def_785 (and .def_76 .def_784)))
(let ((.def_192 (= idx__2$main.next idx__2$main)))
(let ((.def_786 (and .def_192 .def_785)))
(let ((.def_80 (= val__8$main val__8$main.next)))
(let ((.def_787 (and .def_80 .def_786)))
(let ((.def_84 (= __INLINE_TEMP__19$main __INLINE_TEMP__19$main.next)))
(let ((.def_788 (and .def_84 .def_787)))
(let ((.def_88 (= i__7$main i__7$main.next)))
(let ((.def_789 (and .def_88 .def_788)))
(let ((.def_92 (= i__18$main i__18$main.next)))
(let ((.def_790 (and .def_92 .def_789)))
(let ((.def_96 (= i__23$main i__23$main.next)))
(let ((.def_791 (and .def_96 .def_790)))
(let ((.def_100 (= tmp2__14$main tmp2__14$main.next)))
(let ((.def_792 (and .def_100 .def_791)))
(let ((.def_104 (= max max.next)))
(let ((.def_793 (and .def_104 .def_792)))
(let ((.def_108 (= maxval__34$main maxval__34$main.next)))
(let ((.def_794 (and .def_108 .def_793)))
(let ((.def_112 (= i__38$main i__38$main.next)))
(let ((.def_795 (and .def_112 .def_794)))
(let ((.def_116 (= __RET__$main __RET__$main.next)))
(let ((.def_796 (and .def_116 .def_795)))
(let ((.def_120 (= tmp1__12$main tmp1__12$main.next)))
(let ((.def_797 (and .def_120 .def_796)))
(let ((.def_124 (= val__24$main val__24$main.next)))
(let ((.def_798 (and .def_124 .def_797)))
(let ((.def_800 (and .def_798 .def_799)))
(let ((.def_818 (and .def_800 .def_817)))
(let ((.def_770 (and _PC.0 _PC.1)))
(let ((.def_812 (and .def_15 .def_770)))
(let ((.def_813 (and .def_18 .def_812)))
(let ((.def_814 (and .def_800 .def_813)))
(let ((.def_13 (and .def_10 .def_12)))
(let ((.def_808 (and .def_13 _PC.2)))
(let ((.def_809 (and .def_18 .def_808)))
(let ((.def_810 (and .def_800 .def_809)))
(let ((.def_804 (and _PC.2 .def_803)))
(let ((.def_805 (and .def_18 .def_804)))
(let ((.def_806 (and .def_800 .def_805)))
(let ((.def_771 (and _PC.2 .def_770)))
(let ((.def_772 (and .def_18 .def_771)))
(let ((.def_801 (and .def_772 .def_800)))
(let ((.def_350 (and _PC.1.next _PC.0.next)))
(let ((.def_765 (and _PC.2.next .def_350)))
(let ((.def_127 (not _PC.3.next)))
(let ((.def_766 (and .def_127 .def_765)))
(let ((.def_741 (= max.next idx__2$main)))
(let ((.def_742 (not .def_741)))
(let ((.def_711 (= tmp__32$main.next maxval__34$main.next)))
(let ((.def_709 (= i__30$main max.next)))
(let ((.def_703 (<= tmp__32$main.next maxval__34$main)))
(let ((.def_707 (not .def_703)))
(let ((.def_701 (= __INLINE_TEMP__36$main.next tmp__32$main.next)))
(let ((.def_698 (= __INLINE_TEMP__36$main.next a6)))
(let ((.def_626 (= i__30$main i__38$main.next)))
(let ((.def_624 (= i__38$main.next (to_real 0))))
(let ((.def_625 (not .def_624)))
(let ((.def_627 (and .def_625 .def_626)))
(let ((.def_622 (= i__38$main.next (to_real 1))))
(let ((.def_623 (not .def_622)))
(let ((.def_628 (and .def_623 .def_627)))
(let ((.def_620 (= i__38$main.next (to_real 2))))
(let ((.def_621 (not .def_620)))
(let ((.def_629 (and .def_621 .def_628)))
(let ((.def_618 (= i__38$main.next (to_real 3))))
(let ((.def_619 (not .def_618)))
(let ((.def_630 (and .def_619 .def_629)))
(let ((.def_616 (= i__38$main.next (to_real 4))))
(let ((.def_617 (not .def_616)))
(let ((.def_631 (and .def_617 .def_630)))
(let ((.def_614 (= i__38$main.next (to_real 5))))
(let ((.def_615 (not .def_614)))
(let ((.def_632 (and .def_615 .def_631)))
(let ((.def_612 (= i__38$main.next (to_real 6))))
(let ((.def_697 (and .def_612 .def_632)))
(let ((.def_699 (and .def_697 .def_698)))
(let ((.def_694 (= __INLINE_TEMP__36$main.next a5)))
(let ((.def_693 (and .def_614 .def_631)))
(let ((.def_695 (and .def_693 .def_694)))
(let ((.def_690 (= __INLINE_TEMP__36$main.next a4)))
(let ((.def_689 (and .def_616 .def_630)))
(let ((.def_691 (and .def_689 .def_690)))
(let ((.def_686 (= __INLINE_TEMP__36$main.next a3)))
(let ((.def_685 (and .def_618 .def_629)))
(let ((.def_687 (and .def_685 .def_686)))
(let ((.def_682 (= __INLINE_TEMP__36$main.next a2)))
(let ((.def_681 (and .def_620 .def_628)))
(let ((.def_683 (and .def_681 .def_682)))
(let ((.def_678 (= __INLINE_TEMP__36$main.next a0)))
(let ((.def_677 (and .def_624 .def_626)))
(let ((.def_679 (and .def_677 .def_678)))
(let ((.def_675 (= __INLINE_TEMP__36$main.next a1)))
(let ((.def_674 (and .def_622 .def_627)))
(let ((.def_676 (and .def_674 .def_675)))
(let ((.def_680 (or .def_676 .def_679)))
(let ((.def_684 (or .def_680 .def_683)))
(let ((.def_688 (or .def_684 .def_687)))
(let ((.def_692 (or .def_688 .def_691)))
(let ((.def_696 (or .def_692 .def_695)))
(let ((.def_700 (or .def_696 .def_699)))
(let ((.def_702 (and .def_700 .def_701)))
(let ((.def_708 (and .def_702 .def_707)))
(let ((.def_710 (and .def_708 .def_709)))
(let ((.def_712 (and .def_710 .def_711)))
(let ((.def_704 (and .def_702 .def_703)))
(let ((.def_705 (and .def_108 .def_704)))
(let ((.def_706 (and .def_104 .def_705)))
(let ((.def_713 (or .def_706 .def_712)))
(let ((.def_671 (* (to_real (- 1)) i__30$main.next)))
(let ((.def_672 (+ i__30$main .def_671)))
(let ((.def_673 (= .def_672 (to_real (- 1)))))
(let ((.def_714 (and .def_673 .def_713)))
(let ((.def_667 (<= (to_real 7) i__30$main.next)))
(let ((.def_740 (and .def_667 .def_714)))
(let ((.def_743 (and .def_740 .def_742)))
(let ((.def_744 (and .def_32 .def_743)))
(let ((.def_745 (and .def_175 .def_744)))
(let ((.def_746 (and .def_36 .def_745)))
(let ((.def_747 (and .def_182 .def_746)))
(let ((.def_748 (and .def_52 .def_747)))
(let ((.def_749 (and .def_56 .def_748)))
(let ((.def_750 (and .def_60 .def_749)))
(let ((.def_751 (and .def_64 .def_750)))
(let ((.def_752 (and .def_68 .def_751)))
(let ((.def_753 (and .def_72 .def_752)))
(let ((.def_754 (and .def_76 .def_753)))
(let ((.def_755 (and .def_192 .def_754)))
(let ((.def_756 (and .def_80 .def_755)))
(let ((.def_757 (and .def_84 .def_756)))
(let ((.def_758 (and .def_88 .def_757)))
(let ((.def_759 (and .def_92 .def_758)))
(let ((.def_760 (and .def_96 .def_759)))
(let ((.def_761 (and .def_100 .def_760)))
(let ((.def_762 (and .def_116 .def_761)))
(let ((.def_763 (and .def_120 .def_762)))
(let ((.def_764 (and .def_124 .def_763)))
(let ((.def_767 (and .def_764 .def_766)))
(let ((.def_663 (and _PC.2 .def_209)))
(let ((.def_664 (and .def_18 .def_663)))
(let ((.def_768 (and .def_664 .def_767)))
(let ((.def_668 (not .def_667)))
(let ((.def_715 (and .def_668 .def_714)))
(let ((.def_716 (and .def_32 .def_715)))
(let ((.def_717 (and .def_175 .def_716)))
(let ((.def_718 (and .def_36 .def_717)))
(let ((.def_719 (and .def_182 .def_718)))
(let ((.def_720 (and .def_52 .def_719)))
(let ((.def_721 (and .def_56 .def_720)))
(let ((.def_722 (and .def_60 .def_721)))
(let ((.def_723 (and .def_64 .def_722)))
(let ((.def_724 (and .def_68 .def_723)))
(let ((.def_725 (and .def_72 .def_724)))
(let ((.def_726 (and .def_76 .def_725)))
(let ((.def_727 (and .def_192 .def_726)))
(let ((.def_728 (and .def_80 .def_727)))
(let ((.def_729 (and .def_84 .def_728)))
(let ((.def_730 (and .def_88 .def_729)))
(let ((.def_731 (and .def_92 .def_730)))
(let ((.def_732 (and .def_96 .def_731)))
(let ((.def_733 (and .def_100 .def_732)))
(let ((.def_734 (and .def_116 .def_733)))
(let ((.def_735 (and .def_120 .def_734)))
(let ((.def_736 (and .def_124 .def_735)))
(let ((.def_607 (and _PC.2.next .def_133)))
(let ((.def_608 (and .def_127 .def_607)))
(let ((.def_737 (and .def_608 .def_736)))
(let ((.def_738 (and .def_664 .def_737)))
(let ((.def_204 (not _PC.0.next)))
(let ((.def_205 (and _PC.1.next .def_204)))
(let ((.def_660 (and _PC.2.next .def_205)))
(let ((.def_661 (and .def_127 .def_660)))
(let ((.def_613 (not .def_612)))
(let ((.def_633 (and .def_613 .def_632)))
(let ((.def_634 (and .def_32 .def_633)))
(let ((.def_635 (and .def_175 .def_634)))
(let ((.def_636 (and .def_36 .def_635)))
(let ((.def_637 (and .def_40 .def_636)))
(let ((.def_638 (and .def_44 .def_637)))
(let ((.def_639 (and .def_48 .def_638)))
(let ((.def_640 (and .def_182 .def_639)))
(let ((.def_641 (and .def_52 .def_640)))
(let ((.def_642 (and .def_56 .def_641)))
(let ((.def_643 (and .def_60 .def_642)))
(let ((.def_644 (and .def_64 .def_643)))
(let ((.def_645 (and .def_68 .def_644)))
(let ((.def_646 (and .def_72 .def_645)))
(let ((.def_647 (and .def_76 .def_646)))
(let ((.def_648 (and .def_192 .def_647)))
(let ((.def_649 (and .def_80 .def_648)))
(let ((.def_650 (and .def_84 .def_649)))
(let ((.def_651 (and .def_88 .def_650)))
(let ((.def_652 (and .def_92 .def_651)))
(let ((.def_653 (and .def_96 .def_652)))
(let ((.def_654 (and .def_100 .def_653)))
(let ((.def_655 (and .def_104 .def_654)))
(let ((.def_656 (and .def_108 .def_655)))
(let ((.def_657 (and .def_116 .def_656)))
(let ((.def_658 (and .def_120 .def_657)))
(let ((.def_659 (and .def_124 .def_658)))
(let ((.def_662 (and .def_659 .def_661)))
(let ((.def_665 (and .def_662 .def_664)))
(let ((.def_597 (= val__27$main.next a6.next)))
(let ((.def_595 (= val__27$main.next tmp1__12$main.next)))
(let ((.def_592 (= a0.next a0.SSA.1.ssa)))
(let ((.def_584 (= a2.next val__24$main.next)))
(let ((.def_532 (= __INLINE_TEMP__19$main.next a6.SSA.1.ssa)))
(let ((.def_528 (= __INLINE_TEMP__16$main.next a6.SSA.1.ssa)))
(let ((.def_490 (= a0 a0.SSA.1.ssa)))
(let ((.def_478 (= val__8$main.next a6.SSA.1.ssa)))
(let ((.def_165 (= i__7$main.next i__4$main)))
(let ((.def_162 (* (to_real (- 1)) i__4$main)))
(let ((.def_163 (+ val__8$main.next .def_162)))
(let ((.def_164 (= .def_163 (to_real 1))))
(let ((.def_166 (and .def_164 .def_165)))
(let ((.def_156 (= i__7$main.next (to_real 0))))
(let ((.def_157 (not .def_156)))
(let ((.def_167 (and .def_157 .def_166)))
(let ((.def_154 (= i__7$main.next (to_real 1))))
(let ((.def_155 (not .def_154)))
(let ((.def_168 (and .def_155 .def_167)))
(let ((.def_151 (= i__7$main.next (to_real 2))))
(let ((.def_152 (not .def_151)))
(let ((.def_169 (and .def_152 .def_168)))
(let ((.def_148 (= i__7$main.next (to_real 3))))
(let ((.def_149 (not .def_148)))
(let ((.def_170 (and .def_149 .def_169)))
(let ((.def_145 (= i__7$main.next (to_real 4))))
(let ((.def_146 (not .def_145)))
(let ((.def_171 (and .def_146 .def_170)))
(let ((.def_142 (= i__7$main.next (to_real 5))))
(let ((.def_143 (not .def_142)))
(let ((.def_172 (and .def_143 .def_171)))
(let ((.def_139 (= i__7$main.next (to_real 6))))
(let ((.def_257 (and .def_139 .def_172)))
(let ((.def_479 (and .def_257 .def_478)))
(let ((.def_451 (= a5 a5.SSA.1.ssa)))
(let ((.def_480 (and .def_451 .def_479)))
(let ((.def_475 (= val__8$main.next a5.SSA.1.ssa)))
(let ((.def_253 (and .def_142 .def_171)))
(let ((.def_476 (and .def_253 .def_475)))
(let ((.def_445 (= a6 a6.SSA.1.ssa)))
(let ((.def_477 (and .def_445 .def_476)))
(let ((.def_481 (or .def_477 .def_480)))
(let ((.def_439 (= a4 a4.SSA.1.ssa)))
(let ((.def_482 (and .def_439 .def_481)))
(let ((.def_471 (= val__8$main.next a4.SSA.1.ssa)))
(let ((.def_248 (and .def_145 .def_170)))
(let ((.def_472 (and .def_248 .def_471)))
(let ((.def_473 (and .def_445 .def_472)))
(let ((.def_474 (and .def_451 .def_473)))
(let ((.def_483 (or .def_474 .def_482)))
(let ((.def_436 (= a3 a3.SSA.1.ssa)))
(let ((.def_484 (and .def_436 .def_483)))
(let ((.def_466 (= val__8$main.next a3.SSA.1.ssa)))
(let ((.def_242 (and .def_148 .def_169)))
(let ((.def_467 (and .def_242 .def_466)))
(let ((.def_468 (and .def_439 .def_467)))
(let ((.def_469 (and .def_445 .def_468)))
(let ((.def_470 (and .def_451 .def_469)))
(let ((.def_485 (or .def_470 .def_484)))
(let ((.def_442 (= a2 a2.SSA.1.ssa)))
(let ((.def_486 (and .def_442 .def_485)))
(let ((.def_460 (= val__8$main.next a2.SSA.1.ssa)))
(let ((.def_235 (and .def_151 .def_168)))
(let ((.def_461 (and .def_235 .def_460)))
(let ((.def_462 (and .def_436 .def_461)))
(let ((.def_463 (and .def_439 .def_462)))
(let ((.def_464 (and .def_445 .def_463)))
(let ((.def_465 (and .def_451 .def_464)))
(let ((.def_487 (or .def_465 .def_486)))
(let ((.def_448 (= a1 a1.SSA.1.ssa)))
(let ((.def_488 (and .def_448 .def_487)))
(let ((.def_453 (= val__8$main.next a1.SSA.1.ssa)))
(let ((.def_227 (and .def_154 .def_167)))
(let ((.def_454 (and .def_227 .def_453)))
(let ((.def_455 (and .def_436 .def_454)))
(let ((.def_456 (and .def_439 .def_455)))
(let ((.def_457 (and .def_442 .def_456)))
(let ((.def_458 (and .def_445 .def_457)))
(let ((.def_459 (and .def_451 .def_458)))
(let ((.def_489 (or .def_459 .def_488)))
(let ((.def_491 (and .def_489 .def_490)))
(let ((.def_433 (= val__8$main.next a0.SSA.1.ssa)))
(let ((.def_218 (and .def_156 .def_166)))
(let ((.def_434 (and .def_218 .def_433)))
(let ((.def_437 (and .def_434 .def_436)))
(let ((.def_440 (and .def_437 .def_439)))
(let ((.def_443 (and .def_440 .def_442)))
(let ((.def_446 (and .def_443 .def_445)))
(let ((.def_449 (and .def_446 .def_448)))
(let ((.def_452 (and .def_449 .def_451)))
(let ((.def_492 (or .def_452 .def_491)))
(let ((.def_271 (+ i__4$main.next .def_162)))
(let ((.def_272 (= .def_271 (to_real 1))))
(let ((.def_493 (and .def_272 .def_492)))
(let ((.def_215 (<= (to_real 7) i__4$main.next)))
(let ((.def_494 (and .def_215 .def_493)))
(let ((.def_304 (= idx__2$main (to_real 0))))
(let ((.def_303 (= idx__2$main (to_real 1))))
(let ((.def_305 (or .def_303 .def_304)))
(let ((.def_302 (= idx__2$main (to_real 2))))
(let ((.def_306 (or .def_302 .def_305)))
(let ((.def_301 (= idx__2$main (to_real 3))))
(let ((.def_307 (or .def_301 .def_306)))
(let ((.def_300 (= idx__2$main (to_real 4))))
(let ((.def_308 (or .def_300 .def_307)))
(let ((.def_299 (= idx__2$main (to_real 5))))
(let ((.def_309 (or .def_299 .def_308)))
(let ((.def_298 (= idx__2$main (to_real 6))))
(let ((.def_310 (or .def_298 .def_309)))
(let ((.def_495 (and .def_310 .def_494)))
(let ((.def_312 (= x__10$main.next idx__2$main)))
(let ((.def_496 (and .def_312 .def_495)))
(let ((.def_314 (= x__10$main.next i__18$main.next)))
(let ((.def_497 (and .def_314 .def_496)))
(let ((.def_316 (= i__18$main.next (to_real 0))))
(let ((.def_317 (not .def_316)))
(let ((.def_498 (and .def_317 .def_497)))
(let ((.def_319 (= i__18$main.next (to_real 1))))
(let ((.def_320 (not .def_319)))
(let ((.def_506 (and .def_320 .def_498)))
(let ((.def_322 (= i__18$main.next (to_real 2))))
(let ((.def_323 (not .def_322)))
(let ((.def_511 (and .def_323 .def_506)))
(let ((.def_325 (= i__18$main.next (to_real 3))))
(let ((.def_326 (not .def_325)))
(let ((.def_516 (and .def_326 .def_511)))
(let ((.def_328 (= i__18$main.next (to_real 4))))
(let ((.def_329 (not .def_328)))
(let ((.def_521 (and .def_329 .def_516)))
(let ((.def_331 (= i__18$main.next (to_real 5))))
(let ((.def_332 (not .def_331)))
(let ((.def_526 (and .def_332 .def_521)))
(let ((.def_295 (= i__18$main.next (to_real 6))))
(let ((.def_527 (and .def_295 .def_526)))
(let ((.def_529 (and .def_527 .def_528)))
(let ((.def_523 (= __INLINE_TEMP__16$main.next a5.SSA.1.ssa)))
(let ((.def_522 (and .def_331 .def_521)))
(let ((.def_524 (and .def_522 .def_523)))
(let ((.def_518 (= __INLINE_TEMP__16$main.next a4.SSA.1.ssa)))
(let ((.def_517 (and .def_328 .def_516)))
(let ((.def_519 (and .def_517 .def_518)))
(let ((.def_513 (= __INLINE_TEMP__16$main.next a3.SSA.1.ssa)))
(let ((.def_512 (and .def_325 .def_511)))
(let ((.def_514 (and .def_512 .def_513)))
(let ((.def_508 (= __INLINE_TEMP__16$main.next a2.SSA.1.ssa)))
(let ((.def_507 (and .def_322 .def_506)))
(let ((.def_509 (and .def_507 .def_508)))
(let ((.def_503 (= __INLINE_TEMP__16$main.next a0.SSA.1.ssa)))
(let ((.def_502 (and .def_316 .def_497)))
(let ((.def_504 (and .def_502 .def_503)))
(let ((.def_500 (= __INLINE_TEMP__16$main.next a1.SSA.1.ssa)))
(let ((.def_499 (and .def_319 .def_498)))
(let ((.def_501 (and .def_499 .def_500)))
(let ((.def_505 (or .def_501 .def_504)))
(let ((.def_510 (or .def_505 .def_509)))
(let ((.def_515 (or .def_510 .def_514)))
(let ((.def_520 (or .def_515 .def_519)))
(let ((.def_525 (or .def_520 .def_524)))
(let ((.def_530 (or .def_525 .def_529)))
(let ((.def_385 (= __INLINE_TEMP__16$main.next tmp1__12$main.next)))
(let ((.def_531 (and .def_385 .def_530)))
(let ((.def_533 (and .def_531 .def_532)))
(let ((.def_389 (= __INLINE_TEMP__19$main.next tmp2__14$main.next)))
(let ((.def_534 (and .def_389 .def_533)))
(let ((.def_391 (= x__10$main.next i__23$main.next)))
(let ((.def_535 (and .def_391 .def_534)))
(let ((.def_393 (= tmp2__14$main.next val__24$main.next)))
(let ((.def_536 (and .def_393 .def_535)))
(let ((.def_395 (= i__23$main.next (to_real 0))))
(let ((.def_396 (not .def_395)))
(let ((.def_550 (and .def_396 .def_536)))
(let ((.def_398 (= i__23$main.next (to_real 1))))
(let ((.def_399 (not .def_398)))
(let ((.def_558 (and .def_399 .def_550)))
(let ((.def_401 (= i__23$main.next (to_real 2))))
(let ((.def_583 (and .def_401 .def_558)))
(let ((.def_585 (and .def_583 .def_584)))
(let ((.def_542 (= a5.next a5.SSA.1.ssa)))
(let ((.def_586 (and .def_542 .def_585)))
(let ((.def_544 (= a3.next a3.SSA.1.ssa)))
(let ((.def_587 (and .def_544 .def_586)))
(let ((.def_546 (= a4.next a4.SSA.1.ssa)))
(let ((.def_588 (and .def_546 .def_587)))
(let ((.def_576 (= a4.next val__24$main.next)))
(let ((.def_402 (not .def_401)))
(let ((.def_559 (and .def_402 .def_558)))
(let ((.def_404 (= i__23$main.next (to_real 3))))
(let ((.def_405 (not .def_404)))
(let ((.def_565 (and .def_405 .def_559)))
(let ((.def_407 (= i__23$main.next (to_real 4))))
(let ((.def_575 (and .def_407 .def_565)))
(let ((.def_577 (and .def_575 .def_576)))
(let ((.def_578 (and .def_542 .def_577)))
(let ((.def_571 (= a5.next val__24$main.next)))
(let ((.def_408 (not .def_407)))
(let ((.def_566 (and .def_408 .def_565)))
(let ((.def_410 (= i__23$main.next (to_real 5))))
(let ((.def_570 (and .def_410 .def_566)))
(let ((.def_572 (and .def_570 .def_571)))
(let ((.def_411 (not .def_410)))
(let ((.def_567 (and .def_411 .def_566)))
(let ((.def_356 (= i__23$main.next (to_real 6))))
(let ((.def_568 (and .def_356 .def_567)))
(let ((.def_569 (and .def_542 .def_568)))
(let ((.def_573 (or .def_569 .def_572)))
(let ((.def_574 (and .def_546 .def_573)))
(let ((.def_579 (or .def_574 .def_578)))
(let ((.def_580 (and .def_544 .def_579)))
(let ((.def_561 (= a3.next val__24$main.next)))
(let ((.def_560 (and .def_404 .def_559)))
(let ((.def_562 (and .def_560 .def_561)))
(let ((.def_563 (and .def_542 .def_562)))
(let ((.def_564 (and .def_546 .def_563)))
(let ((.def_581 (or .def_564 .def_580)))
(let ((.def_548 (= a2.next a2.SSA.1.ssa)))
(let ((.def_582 (and .def_548 .def_581)))
(let ((.def_589 (or .def_582 .def_588)))
(let ((.def_540 (= a1.next a1.SSA.1.ssa)))
(let ((.def_590 (and .def_540 .def_589)))
(let ((.def_552 (= a1.next val__24$main.next)))
(let ((.def_551 (and .def_398 .def_550)))
(let ((.def_553 (and .def_551 .def_552)))
(let ((.def_554 (and .def_542 .def_553)))
(let ((.def_555 (and .def_544 .def_554)))
(let ((.def_556 (and .def_546 .def_555)))
(let ((.def_557 (and .def_548 .def_556)))
(let ((.def_591 (or .def_557 .def_590)))
(let ((.def_593 (and .def_591 .def_592)))
(let ((.def_538 (= a0.next val__24$main.next)))
(let ((.def_537 (and .def_395 .def_536)))
(let ((.def_539 (and .def_537 .def_538)))
(let ((.def_541 (and .def_539 .def_540)))
(let ((.def_543 (and .def_541 .def_542)))
(let ((.def_545 (and .def_543 .def_544)))
(let ((.def_547 (and .def_545 .def_546)))
(let ((.def_549 (and .def_547 .def_548)))
(let ((.def_594 (or .def_549 .def_593)))
(let ((.def_596 (and .def_594 .def_595)))
(let ((.def_598 (and .def_596 .def_597)))
(let ((.def_431 (= i__30$main.next (to_real 0))))
(let ((.def_599 (and .def_431 .def_598)))
(let ((.def_430 (= maxval__34$main.next (to_real 0))))
(let ((.def_600 (and .def_430 .def_599)))
(let ((.def_429 (= max.next (to_real 0))))
(let ((.def_601 (and .def_429 .def_600)))
(let ((.def_602 (and .def_44 .def_601)))
(let ((.def_603 (and .def_48 .def_602)))
(let ((.def_604 (and .def_192 .def_603)))
(let ((.def_605 (and .def_112 .def_604)))
(let ((.def_606 (and .def_116 .def_605)))
(let ((.def_609 (and .def_606 .def_608)))
(let ((.def_211 (and .def_18 .def_210)))
(let ((.def_610 (and .def_211 .def_609)))
(let ((.def_423 (and .def_131 .def_204)))
(let ((.def_424 (and _PC.2.next .def_423)))
(let ((.def_425 (and .def_127 .def_424)))
(let ((.def_387 (= a6.next __INLINE_TEMP__19$main.next)))
(let ((.def_382 (= __INLINE_TEMP__16$main.next a6.next)))
(let ((.def_256 (= a6.next val__8$main.next)))
(let ((.def_258 (and .def_256 .def_257)))
(let ((.def_259 (and .def_72 .def_258)))
(let ((.def_252 (= a5.next val__8$main.next)))
(let ((.def_254 (and .def_252 .def_253)))
(let ((.def_255 (and .def_76 .def_254)))
(let ((.def_260 (or .def_255 .def_259)))
(let ((.def_261 (and .def_68 .def_260)))
(let ((.def_247 (= a4.next val__8$main.next)))
(let ((.def_249 (and .def_247 .def_248)))
(let ((.def_250 (and .def_76 .def_249)))
(let ((.def_251 (and .def_72 .def_250)))
(let ((.def_262 (or .def_251 .def_261)))
(let ((.def_263 (and .def_64 .def_262)))
(let ((.def_241 (= a3.next val__8$main.next)))
(let ((.def_243 (and .def_241 .def_242)))
(let ((.def_244 (and .def_68 .def_243)))
(let ((.def_245 (and .def_76 .def_244)))
(let ((.def_246 (and .def_72 .def_245)))
(let ((.def_264 (or .def_246 .def_263)))
(let ((.def_265 (and .def_60 .def_264)))
(let ((.def_234 (= a2.next val__8$main.next)))
(let ((.def_236 (and .def_234 .def_235)))
(let ((.def_237 (and .def_64 .def_236)))
(let ((.def_238 (and .def_68 .def_237)))
(let ((.def_239 (and .def_76 .def_238)))
(let ((.def_240 (and .def_72 .def_239)))
(let ((.def_266 (or .def_240 .def_265)))
(let ((.def_267 (and .def_52 .def_266)))
(let ((.def_226 (= a1.next val__8$main.next)))
(let ((.def_228 (and .def_226 .def_227)))
(let ((.def_229 (and .def_64 .def_228)))
(let ((.def_230 (and .def_68 .def_229)))
(let ((.def_231 (and .def_60 .def_230)))
(let ((.def_232 (and .def_76 .def_231)))
(let ((.def_233 (and .def_72 .def_232)))
(let ((.def_268 (or .def_233 .def_267)))
(let ((.def_269 (and .def_182 .def_268)))
(let ((.def_217 (= a0.next val__8$main.next)))
(let ((.def_219 (and .def_217 .def_218)))
(let ((.def_220 (and .def_64 .def_219)))
(let ((.def_221 (and .def_68 .def_220)))
(let ((.def_222 (and .def_60 .def_221)))
(let ((.def_223 (and .def_76 .def_222)))
(let ((.def_224 (and .def_52 .def_223)))
(let ((.def_225 (and .def_72 .def_224)))
(let ((.def_270 (or .def_225 .def_269)))
(let ((.def_273 (and .def_270 .def_272)))
(let ((.def_297 (and .def_215 .def_273)))
(let ((.def_311 (and .def_297 .def_310)))
(let ((.def_313 (and .def_311 .def_312)))
(let ((.def_315 (and .def_313 .def_314)))
(let ((.def_318 (and .def_315 .def_317)))
(let ((.def_321 (and .def_318 .def_320)))
(let ((.def_324 (and .def_321 .def_323)))
(let ((.def_327 (and .def_324 .def_326)))
(let ((.def_330 (and .def_327 .def_329)))
(let ((.def_333 (and .def_330 .def_332)))
(let ((.def_381 (and .def_295 .def_333)))
(let ((.def_383 (and .def_381 .def_382)))
(let ((.def_378 (= __INLINE_TEMP__16$main.next a5.next)))
(let ((.def_377 (and .def_330 .def_331)))
(let ((.def_379 (and .def_377 .def_378)))
(let ((.def_374 (= __INLINE_TEMP__16$main.next a4.next)))
(let ((.def_373 (and .def_327 .def_328)))
(let ((.def_375 (and .def_373 .def_374)))
(let ((.def_370 (= __INLINE_TEMP__16$main.next a3.next)))
(let ((.def_369 (and .def_324 .def_325)))
(let ((.def_371 (and .def_369 .def_370)))
(let ((.def_366 (= __INLINE_TEMP__16$main.next a2.next)))
(let ((.def_365 (and .def_321 .def_322)))
(let ((.def_367 (and .def_365 .def_366)))
(let ((.def_362 (= a0.next __INLINE_TEMP__16$main.next)))
(let ((.def_361 (and .def_315 .def_316)))
(let ((.def_363 (and .def_361 .def_362)))
(let ((.def_359 (= __INLINE_TEMP__16$main.next a1.next)))
(let ((.def_358 (and .def_318 .def_319)))
(let ((.def_360 (and .def_358 .def_359)))
(let ((.def_364 (or .def_360 .def_363)))
(let ((.def_368 (or .def_364 .def_367)))
(let ((.def_372 (or .def_368 .def_371)))
(let ((.def_376 (or .def_372 .def_375)))
(let ((.def_380 (or .def_376 .def_379)))
(let ((.def_384 (or .def_380 .def_383)))
(let ((.def_386 (and .def_384 .def_385)))
(let ((.def_388 (and .def_386 .def_387)))
(let ((.def_390 (and .def_388 .def_389)))
(let ((.def_392 (and .def_390 .def_391)))
(let ((.def_394 (and .def_392 .def_393)))
(let ((.def_397 (and .def_394 .def_396)))
(let ((.def_400 (and .def_397 .def_399)))
(let ((.def_403 (and .def_400 .def_402)))
(let ((.def_406 (and .def_403 .def_405)))
(let ((.def_409 (and .def_406 .def_408)))
(let ((.def_412 (and .def_409 .def_411)))
(let ((.def_357 (not .def_356)))
(let ((.def_413 (and .def_357 .def_412)))
(let ((.def_414 (and .def_40 .def_413)))
(let ((.def_415 (and .def_44 .def_414)))
(let ((.def_416 (and .def_48 .def_415)))
(let ((.def_417 (and .def_56 .def_416)))
(let ((.def_418 (and .def_192 .def_417)))
(let ((.def_419 (and .def_104 .def_418)))
(let ((.def_420 (and .def_108 .def_419)))
(let ((.def_421 (and .def_112 .def_420)))
(let ((.def_422 (and .def_116 .def_421)))
(let ((.def_426 (and .def_422 .def_425)))
(let ((.def_427 (and .def_211 .def_426)))
(let ((.def_351 (and .def_129 .def_350)))
(let ((.def_352 (and .def_127 .def_351)))
(let ((.def_296 (not .def_295)))
(let ((.def_334 (and .def_296 .def_333)))
(let ((.def_335 (and .def_32 .def_334)))
(let ((.def_336 (and .def_40 .def_335)))
(let ((.def_337 (and .def_44 .def_336)))
(let ((.def_338 (and .def_48 .def_337)))
(let ((.def_339 (and .def_56 .def_338)))
(let ((.def_340 (and .def_192 .def_339)))
(let ((.def_341 (and .def_84 .def_340)))
(let ((.def_342 (and .def_96 .def_341)))
(let ((.def_343 (and .def_100 .def_342)))
(let ((.def_344 (and .def_104 .def_343)))
(let ((.def_345 (and .def_108 .def_344)))
(let ((.def_346 (and .def_112 .def_345)))
(let ((.def_347 (and .def_116 .def_346)))
(let ((.def_348 (and .def_120 .def_347)))
(let ((.def_349 (and .def_124 .def_348)))
(let ((.def_353 (and .def_349 .def_352)))
(let ((.def_354 (and .def_211 .def_353)))
(let ((.def_216 (not .def_215)))
(let ((.def_274 (and .def_216 .def_273)))
(let ((.def_275 (and .def_32 .def_274)))
(let ((.def_276 (and .def_36 .def_275)))
(let ((.def_277 (and .def_40 .def_276)))
(let ((.def_278 (and .def_44 .def_277)))
(let ((.def_279 (and .def_48 .def_278)))
(let ((.def_280 (and .def_56 .def_279)))
(let ((.def_281 (and .def_192 .def_280)))
(let ((.def_282 (and .def_84 .def_281)))
(let ((.def_283 (and .def_92 .def_282)))
(let ((.def_284 (and .def_96 .def_283)))
(let ((.def_285 (and .def_100 .def_284)))
(let ((.def_286 (and .def_104 .def_285)))
(let ((.def_287 (and .def_108 .def_286)))
(let ((.def_288 (and .def_112 .def_287)))
(let ((.def_289 (and .def_116 .def_288)))
(let ((.def_290 (and .def_120 .def_289)))
(let ((.def_291 (and .def_124 .def_290)))
(let ((.def_135 (and .def_127 .def_134)))
(let ((.def_292 (and .def_135 .def_291)))
(let ((.def_293 (and .def_211 .def_292)))
(let ((.def_206 (and .def_129 .def_205)))
(let ((.def_207 (and .def_127 .def_206)))
(let ((.def_140 (not .def_139)))
(let ((.def_173 (and .def_140 .def_172)))
(let ((.def_174 (and .def_32 .def_173)))
(let ((.def_176 (and .def_174 .def_175)))
(let ((.def_177 (and .def_36 .def_176)))
(let ((.def_178 (and .def_40 .def_177)))
(let ((.def_179 (and .def_44 .def_178)))
(let ((.def_180 (and .def_48 .def_179)))
(let ((.def_183 (and .def_180 .def_182)))
(let ((.def_184 (and .def_52 .def_183)))
(let ((.def_185 (and .def_56 .def_184)))
(let ((.def_186 (and .def_60 .def_185)))
(let ((.def_187 (and .def_64 .def_186)))
(let ((.def_188 (and .def_68 .def_187)))
(let ((.def_189 (and .def_72 .def_188)))
(let ((.def_190 (and .def_76 .def_189)))
(let ((.def_193 (and .def_190 .def_192)))
(let ((.def_194 (and .def_84 .def_193)))
(let ((.def_195 (and .def_92 .def_194)))
(let ((.def_196 (and .def_96 .def_195)))
(let ((.def_197 (and .def_100 .def_196)))
(let ((.def_198 (and .def_104 .def_197)))
(let ((.def_199 (and .def_108 .def_198)))
(let ((.def_200 (and .def_112 .def_199)))
(let ((.def_201 (and .def_116 .def_200)))
(let ((.def_202 (and .def_120 .def_201)))
(let ((.def_203 (and .def_124 .def_202)))
(let ((.def_208 (and .def_203 .def_207)))
(let ((.def_212 (and .def_208 .def_211)))
(let ((.def_27 (= idx__2$main.next |__NONDET_INLINE_INIT__3__3$main#0|)))
(let ((.def_24 (= a0.next (to_real 0))))
(let ((.def_28 (and .def_24 .def_27)))
(let ((.def_22 (= i__4$main.next (to_real 0))))
(let ((.def_29 (and .def_22 .def_28)))
(let ((.def_33 (and .def_29 .def_32)))
(let ((.def_37 (and .def_33 .def_36)))
(let ((.def_41 (and .def_37 .def_40)))
(let ((.def_45 (and .def_41 .def_44)))
(let ((.def_49 (and .def_45 .def_48)))
(let ((.def_53 (and .def_49 .def_52)))
(let ((.def_57 (and .def_53 .def_56)))
(let ((.def_61 (and .def_57 .def_60)))
(let ((.def_65 (and .def_61 .def_64)))
(let ((.def_69 (and .def_65 .def_68)))
(let ((.def_73 (and .def_69 .def_72)))
(let ((.def_77 (and .def_73 .def_76)))
(let ((.def_81 (and .def_77 .def_80)))
(let ((.def_85 (and .def_81 .def_84)))
(let ((.def_89 (and .def_85 .def_88)))
(let ((.def_93 (and .def_89 .def_92)))
(let ((.def_97 (and .def_93 .def_96)))
(let ((.def_101 (and .def_97 .def_100)))
(let ((.def_105 (and .def_101 .def_104)))
(let ((.def_109 (and .def_105 .def_108)))
(let ((.def_113 (and .def_109 .def_112)))
(let ((.def_117 (and .def_113 .def_116)))
(let ((.def_121 (and .def_117 .def_120)))
(let ((.def_125 (and .def_121 .def_124)))
(let ((.def_136 (and .def_125 .def_135)))
(let ((.def_16 (and .def_13 .def_15)))
(let ((.def_19 (and .def_16 .def_18)))
(let ((.def_137 (and .def_19 .def_136)))
(let ((.def_213 (or .def_137 .def_212)))
(let ((.def_294 (or .def_213 .def_293)))
(let ((.def_355 (or .def_294 .def_354)))
(let ((.def_428 (or .def_355 .def_427)))
(let ((.def_611 (or .def_428 .def_610)))
(let ((.def_666 (or .def_611 .def_665)))
(let ((.def_739 (or .def_666 .def_738)))
(let ((.def_769 (or .def_739 .def_768)))
(let ((.def_802 (or .def_769 .def_801)))
(let ((.def_807 (or .def_802 .def_806)))
(let ((.def_811 (or .def_807 .def_810)))
(let ((.def_815 (or .def_811 .def_814)))
(let ((.def_819 (or .def_815 .def_818)))
(let ((.def_822 (or .def_819 .def_821)))
.def_822)))))))))))))))))))))))))))))))))))))))))))))))))))))))))))))))))))))))))))))))))))))))))))))))))))))))))))))))))))))))))))))))))))))))))))))))))))))))))))))))))))))))))))))))))))))))))))))))))))))))))))))))))))))))))))))))))))))))))))))))))))))))))))))))))))))))))))))))))))))))))))))))))))))))))))))))))))))))))))))))))))))))))))))))))))))))))))))))))))))))))))))))))))))))))))))))))))))))))))))))))))))))))))))))))))))))))))))))))))))))))))))))))))))))))))))))))))))))))))))))))))))))))))))))))))))))))))))))))))))))))))))))))))))))))))))))))))))))))))))))))))))))))))))))))))))))))))))))))))))))))))))))))))))))))))))))))))))))))))))))))))))))))))))))))))))))))))))))))))))))))))))))))))))))))))))))))))))))))))))))))))))))))))) (state |_PC.0.next| |_PC.1.next| |_PC.2.next| |_PC.3.next| |__INLINE_TEMP__16$main.next| |x__10$main.next| |i__30$main.next| |__INLINE_TEMP__36$main.next| |tmp__32$main.next| |a1.next| |val__27$main.next| |a2.next| |a3.next| |a4.next| |a5.next| |a6.next| |val__8$main.next| |__INLINE_TEMP__19$main.next| |i__7$main.next| |i__18$main.next| |i__23$main.next| |tmp2__14$main.next| |max.next| |maxval__34$main.next| |i__38$main.next| |__RET__$main.next| |tmp1__12$main.next| |val__24$main.next| |i__4$main.next| |a0.next| |idx__2$main.next|))))
(assert (forall ((|_PC.1| Bool) (|_PC.0| Bool) (|_PC.0.next| Bool) (|_PC.1.next| Bool) (|_PC.2| Bool) (|_PC.2.next| Bool) (|_PC.3.next| Bool) (|i__4$main| Real) (|i__4$main.next| Real) (|__INLINE_TEMP__16$main.next| Real) (|__INLINE_TEMP__16$main| Real) (|x__10$main.next| Real) (|x__10$main| Real) (|i__30$main.next| Real) (|i__30$main| Real) (|__INLINE_TEMP__36$main.next| Real) (|__INLINE_TEMP__36$main| Real) (|tmp__32$main.next| Real) (|tmp__32$main| Real) (|a0| Real) (|a0.next| Real) (|a1.next| Real) (|a1| Real) (|val__27$main.next| Real) (|val__27$main| Real) (|a2.next| Real) (|a2| Real) (|a3.next| Real) (|a3| Real) (|a4.next| Real) (|a4| Real) (|a5.next| Real) (|a5| Real) (|a6.next| Real) (|a6| Real) (|idx__2$main| Real) (|idx__2$main.next| Real) (|val__8$main.next| Real) (|val__8$main| Real) (|__INLINE_TEMP__19$main.next| Real) (|__INLINE_TEMP__19$main| Real) (|i__7$main.next| Real) (|i__7$main| Real) (|i__18$main.next| Real) (|i__18$main| Real) (|i__23$main.next| Real) (|i__23$main| Real) (|tmp2__14$main.next| Real) (|tmp2__14$main| Real) (|max.next| Real) (|max| Real) (|maxval__34$main.next| Real) (|maxval__34$main| Real) (|i__38$main.next| Real) (|i__38$main| Real) (|__RET__$main.next| Real) (|__RET__$main| Real) (|tmp1__12$main.next| Real) (|tmp1__12$main| Real) (|val__24$main.next| Real) (|val__24$main| Real) (|a0.SSA.1.ssa| Real) (|a6.SSA.1.ssa| Real) (|a5.SSA.1.ssa| Real) (|a4.SSA.1.ssa| Real) (|a3.SSA.1.ssa| Real) (|a2.SSA.1.ssa| Real) (|a1.SSA.1.ssa| Real) (|__NONDET_INLINE_INIT__3__3$main#0| Real) (|_PC.3| Bool)) (=> (state |_PC.0| |_PC.1| |_PC.2| |_PC.3| |__INLINE_TEMP__16$main| |x__10$main| |i__30$main| |__INLINE_TEMP__36$main| |tmp__32$main| |a1| |val__27$main| |a2| |a3| |a4| |a5| |a6| |val__8$main| |__INLINE_TEMP__19$main| |i__7$main| |i__18$main| |i__23$main| |tmp2__14$main| |max| |maxval__34$main| |i__38$main| |__RET__$main| |tmp1__12$main| |val__24$main| |i__4$main| |a0| |idx__2$main|) (let ((.def_12 (not _PC.1)))
(let ((.def_209 (and _PC.0 .def_12)))
(let ((.def_15 (not _PC.2)))
(let ((.def_210 (and .def_15 .def_209)))
(let ((.def_820 (and _PC.3 .def_210)))
(let ((.def_823 (not .def_820)))
.def_823)))))))))
(check-sat)
